14511
101001101001001001001000100000
20 0 2 2 20 5 0 24 17 17 2 20 8 20 0 8 14 17 11 11 0 0 11 2 5 8 2 24 5 24 24 11 2 11 20 20 24 24 0 17 0 14 5 8 24 17 2 20 11 8 5 14 14 5 20 20 17 11 0 14 0 5 20 0 11 11 24 0 24 5 20 8 11 17 24 8 5 20 6 24 20 0 8 17 20 17 2 2 20 11 17 24 17 5 17 11 2 20 5 20 8 17 17 0 2 11 8 5 2 8 17 14 2 11 11 11 5 24 24 5 5 8 11 20 8 14 5 5 0 0 0 11 24 11 8 14 17 11 20 17 0 8 20 17 8 11 11 5 2 5 